NAME           caca-example
ROWS
 N  obj     
 L  c1 
 L  c2 
 L  c3 
 L  c4
COLUMNS
    x1        obj                             -9
    x2        obj                             -5
    x3        obj                             -6
    x4        obj                             -4
    x1        c1                              6
    x2        c1                              3
    x3        c1                              5
    x4        c1                              2
    x1        c2                              0
    x2        c2                              0
    x3        c2                              1
    x4        c2                              1
    x1        c3                              -1
    x2        c3                              0
    x3        c3                              1
    x4        c3                              0
    x1        c4                              0
    x2        c4                              -1
    x3        c4                              0
    x4        c4                              1
RHS
    rhs       c1                              9
    rhs       c2                              1
    rhs       c3                              0
    rhs       c4                              0
BOUNDS
 UP bnd       x1                              1
 UP bnd       x2                              1
 UP bnd       x3                              1
 UP bnd       x4                              1
ENDATA
